npieces = 5;	
nplayers = 10;	
duration = [2, 3, 1, 7, 6];
rehearsal = [[0, 0, 0, 1, 0], [0, 1, 0, 1, 0], [1, 0, 1, 0, 1], [1, 1, 1, 0, 1], [0, 1, 1, 1, 0], [0, 1, 1, 1, 1], [0, 1, 1, 1, 1], [0, 1, 0, 0, 1], [0, 0, 0, 1, 1], [1, 0, 0, 1, 1]];